Route #1: 4 58 18 63 26 35 54 40 53 55 42 11 62 39 12 34 7 52 3 25 59 13 24 15 44
Route #2: 14 50 48 16 31 41 9 47 60 10 43 27 20 36 22 23 38
Route #3: 19 51 28 37 21 46 8 2
Route #4: 56 61 49 6 45 57 32 17 5
Route #5: 1 29 30 33
Route #6: 
Route #7: 
Route #8: 
Route #9: 
Route #10: 
cost 1915.7117164613169
